(declare-const tmp Int)
(declare-const term_to_project_onto_integralized Int)
(declare-const term_to_project_onto1_integralized Int)
(declare-const term_to_project_onto2_integralized Int)
(declare-const term_to_project_onto0_integralized Int)
(assert (exists
         ((uninterp?1?1 Int) (uninterp?2?2 Int) (uninterp?3?3 Int)
            (|tmp'?4?4| Int) (|v'?5?5| Int) (|x'?6?6| Int)
            (|counter'?7?7| Int) (x?8?8 Int) (u?9?9 Int) (y?10?10 Int)
            (v?11?11 Int) (counter?12?12 Int) (b?13?13 Int) (a?14?14 Int))
         (and (<= (+ (- x?8?8) 1) 0) (<= (+ (- u?9?9) 1) 0)
                (<= (+ (- y?10?10) 1) 0) (<= (- v?11?11) 0)
                (<= (+ (- counter?12?12) 1) 0) (<= (+ (- b?13?13) 1) 0)
                (<= (+ (- a?14?14) 1) 0) (<= (+ counter?12?12 -1) 0)
                (= (+ (- uninterp?3?3) uninterp?2?2 uninterp?1?1) 0)
                (<= (+ y?10?10 (- x?8?8) 1) 0)
                (= (+ |tmp'?4?4| (- counter?12?12)) 0)
                (= (+ |v'?5?5| (- v?11?11) (- u?9?9)) 0)
                (= (+ |x'?6?6| y?10?10 (- x?8?8)) 0)
                (= (+ |counter'?7?7| (- counter?12?12) -1) 0)
                (<= (+ 2 (- uninterp?1?1)) 0)
                (<= (+ x?8?8 (- uninterp?1?1)) 0)
                (<= (+ (* 2 u?9?9) (- uninterp?1?1)) 0)
                (<= (- uninterp?2?2) 0) (<= (+ v?11?11 (- uninterp?2?2)) 0)
                (<= (+ 1 (- uninterp?3?3)) 0)
                (<= (+ b?13?13 (- uninterp?3?3)) 0)
                (<= (+ a?14?14 (- uninterp?3?3)) 0)
                (= (- (+ (- uninterp?3?3) uninterp?2?2 uninterp?1?1)) 0)
                (= (+ term_to_project_onto2_integralized
                        (- (+ |counter'?7?7| (- counter?12?12)))) 0)
                (= (+ term_to_project_onto1_integralized
                        (- (+ |x'?6?6| (- x?8?8)))) 0)
                (= (+ term_to_project_onto0_integralized
                        (- (+ |v'?5?5| (- v?11?11)))) 0)
                (= (+ term_to_project_onto_integralized
                        (- (+ |tmp'?4?4| (- tmp)))) 0))))